p cnf 50 20
x -1 2 6 -7 -9 10 -15 16 -17 19 -21 -24 -25 -26 30 -33 -37 41 -42 -44 0
x 1 2 4 -5 8 9 12 14 -17 -18 19 20 21 22 28 29 -30 -31 -32 -33 35 36 37 -39 -40 -42 46 0
x -1 -4 9 -11 -15 16 23 -24 -26 -30 -36 37 -40 41 -42 43 44 45 49 50 0
x -3 -4 -5 -6 -7 8 -11 12 -13 -15 -17 -18 -21 -23 24 -25 -27 28 -31 32 -33 -35 -37 38 45 -46 -47 50 0
x -1 -2 3 -4 -5 6 -7 8 -9 -10 12 14 17 -20 21 -22 25 -27 28 -32 33 36 38 -40 42 -44 45 -47 48 50 0
x -1 -6 -9 -10 -13 14 -15 -17 -18 22 23 -24 -25 -27 28 -30 33 -34 35 -38 -39 42 -43 44 46 47 48 50 0
x 4 5 9 14 15 -16 17 -18 -19 -20 -21 22 25 26 31 -33 35 -36 39 -40 -41 -42 -43 49 0
x -3 -4 5 -6 7 11 -12 -13 17 -18 20 -21 -24 28 -29 30 -31 36 39 40 41 -43 -47 0
x -1 3 5 -6 -11 16 17 19 21 -22 23 25 -27 28 29 30 -32 33 -36 42 44 -45 46 48 49 0
x -1 2 -6 7 10 -11 -13 -17 -19 21 -22 -23 25 28 -29 -32 -34 36 38 41 42 43 -45 48 -49 -50 0
x 2 -4 -5 -6 -8 9 10 -13 -14 19 -22 -24 25 -27 29 32 34 -35 -36 -37 -41 -43 46 -47 -48 49 0
x -2 -3 5 7 8 -9 10 11 15 -16 -18 -19 -20 -21 -27 -28 29 30 -31 32 -34 -35 39 -40 -46 -47 48 -49 0
x -4 -6 -7 -11 14 16 17 19 20 22 28 31 32 -33 34 36 -39 41 42 48 -50 0
x -1 2 -6 -7 -9 11 12 -19 23 -24 28 -33 35 36 37 40 42 44 47 49 0
x -2 3 -4 -5 -7 -9 -10 -11 12 13 14 -16 -18 19 -21 -22 -24 26 27 31 34 -35 37 -38 -39 40 44 45 46 -47 48 0
x 2 -3 7 9 -10 -12 13 14 15 16 17 -18 -19 -23 24 25 -26 -31 33 -35 -40 45 -48 0
x 1 2 -3 4 -9 -10 12 -13 -14 -15 18 -21 24 28 -29 30 35 -37 -38 41 42 44 0
x -1 2 3 5 -6 -7 9 11 12 14 15 -16 18 22 24 -25 26 -31 -32 33 -34 36 -37 38 39 41 -42 44 -46 47 -49 -50 0
x 2 -5 6 -7 8 15 16 -17 18 19 -20 -22 -26 -31 32 33 36 38 39 40 -48 -49 0
x 3 -5 -6 -9 10 14 15 17 -20 -21 -24 25 -26 29 -31 32 -34 35 -36 -39 -40 -42 -44 -45 48 -49 -50 0
g -15